30
5
203172850
0
0
77 28 100 21 34
1
0
36 166 4 44 36
2
0
99 83 28 3 133
3
0
139 33 11 68 162
4
0
72 63 69 1 39
5
0
7 190 74 70 67
6
0
70 20 25 28 18
7
0
53 38 56 105 26
8
0
9 112 286 5 4
9
0
87 28 4 78 34
10
0
114 71 125 35 30
11
0
20 123 66 20 5
12
0
9 22 14 229 14
13
0
10 27 94 25 44
14
0
19 98 210 80 30
15
0
28 25 24 231 103
16
0
98 5 39 20 42
17
0
10 121 149 42 80
18
0
16 106 29 35 44
19
0
42 8 25 12 58
20
0
31 53 22 30 83
21
0
10 51 15 35 38
22
0
74 65 168 139 26
23
0
36 123 1 20 61
24
0
81 65 93 79 30
25
0
5 66 21 127 30
26
0
1 9 6 22 35
27
0
31 90 9 6 7
28
0
19 25 128 49 24
29
0
72 19 75 78 4
